NAME : expansion
TYPE : TSP
DIMENSION : 53
EDGE_WEIGHT_TYPE : EUC_2D
NODE_COORD_SECTION
1 874681 703341
2 682122 166105
3 728913 48241
4 850023 636300
5 135987 889872
6 567451 183242
7 659568 39913
8 704044 96328
9 800932 678178
10 916462 693053
11 711217 155171
12 669451 131049
13 816661 55522
14 171300 955676
15 676388 677180
16 901715 784268
17 650749 118678
18 264739 922896
19 995023 928207
20 745755 131156
21 132084 119211
22 781756 971168
23 15093 487331
24 172833 993869
25 108091 787892
26 364493 812181
27 608363 174390
28 897261 767140
29 665780 150420
30 887739 941242
31 587442 734289
32 620484 150502
33 543745 694174
34 623570 896267
35 566218 61009
36 97260 903894
37 777924 152351
38 671317 106814
39 879783 832873
40 944306 912631
41 70344 75673
42 629682 41693
43 814102 666121
44 881926 47880
45 839578 669308
46 908111 723573
47 983409 836917
48 396954 282651
49 700875 674476
50 931108 868881
51 628345 120471
52 648832 168192
53 981637 784758
EOF
